words_train/words_536_SAT.qaiger
aag 109 24 0 1 85
30
22
4
8
38
26
28
2
6
24
32
34
42
46
36
44
18
48
16
20
12
10
14
40
218
50 36 21
52 37 20
54 53 51
56 55 18
58 56 35
60 54 19
62 60 34
64 63 59
66 21 19
68 66 23
70 67 22
72 71 69
74 39 37
76 38 36
78 77 75
80 78 73
82 79 72
84 83 81
86 84 65
88 68 25
90 69 24
92 91 89
94 74 41
96 75 40
98 97 95
100 98 92
102 99 93
104 103 101
106 105 86
108 88 27
110 89 26
112 111 109
114 94 43
116 95 42
118 117 115
120 118 113
122 119 112
124 123 121
126 124 106
128 108 29
130 109 28
132 131 129
134 132 2
136 133 3
138 137 135
140 114 45
142 115 44
144 143 141
146 144 139
148 145 138
150 149 147
152 150 126
154 128 31
156 129 30
158 157 155
160 158 4
162 159 5
164 163 161
166 164 134
168 167 161
170 33 7
172 32 6
174 173 171
176 175 154
178 174 155
180 179 177
182 140 47
184 183 49
186 182 48
188 187 185
190 188 181
192 189 180
194 193 191
196 195 168
198 194 169
200 199 197
202 201 152
204 165 135
206 205 167
208 141 46
210 209 183
212 210 206
214 211 207
216 215 213
218 217 202
i0 2 y[6]
i1 2 y[2]
i2 1 x[1]
i3 1 x[3]
i4 2 z[2]
i5 2 y[4]
i6 2 y[5]
i7 1 x[0]
i8 1 x[2]
i9 2 y[3]
i10 2 y[7]
i11 2 z[0]
i12 2 z[4]
i13 2 z[6]
i14 2 z[1]
i15 2 z[5]
i16 2 y[0]
i17 2 z[7]
i18 1 x[7]
i19 2 y[1]
i20 1 x[5]
i21 1 x[4]
i22 1 x[6]
i23 2 z[3]
o0 bool[0]
c
simplified
  ==
    add
      << 5
        1 x
      unary minus
        2 y
    subtract
      1
      2 z
