words_train/words_536_SAT.qaiger.qdimacs
p cnf 109 256
a 1 2 3 4 5 6 7 8 0
e 9 10 11 12 13 14 15 16 17 18 19 20 21 22 23 24 25 26 27 28 29 30 31 32 33 34 35 36 37 38 39 40 41 42 43 44 45 46 47 48 49 50 51 52 53 54 55 56 57 58 59 60 61 62 63 64 65 66 67 68 69 70 71 72 73 74 75 76 77 78 79 80 81 82 83 84 85 86 87 88 89 90 91 92 93 94 95 96 97 98 99 100 101 102 103 104 105 106 107 108 109 0
-18 10 25 0
18 -25 0
-10 -25 0
18 -10 26 0
-18 -26 0
10 -26 0
26 25 27 0
-26 -27 0
-25 -27 0
27 -9 28 0
-27 -28 0
9 -28 0
-28 17 29 0
28 -29 0
-17 -29 0
-27 9 30 0
27 -30 0
-9 -30 0
-30 -17 31 0
30 -31 0
17 -31 0
31 29 32 0
-31 -32 0
-29 -32 0
10 9 33 0
-10 -33 0
-9 -33 0
-33 11 34 0
33 -34 0
-11 -34 0
33 -11 35 0
-33 -35 0
11 -35 0
35 34 36 0
-35 -36 0
-34 -36 0
19 18 37 0
-19 -37 0
-18 -37 0
-19 -18 38 0
19 -38 0
18 -38 0
38 37 39 0
-38 -39 0
-37 -39 0
-39 36 40 0
39 -40 0
-36 -40 0
39 -36 41 0
-39 -41 0
36 -41 0
41 40 42 0
-41 -42 0
-40 -42 0
-42 32 43 0
42 -43 0
-32 -43 0
-34 12 44 0
34 -44 0
-12 -44 0
34 -12 45 0
-34 -45 0
12 -45 0
45 44 46 0
-45 -46 0
-44 -46 0
-37 20 47 0
37 -47 0
-20 -47 0
37 -20 48 0
-37 -48 0
20 -48 0
48 47 49 0
-48 -49 0
-47 -49 0
-49 -46 50 0
49 -50 0
46 -50 0
49 46 51 0
-49 -51 0
-46 -51 0
51 50 52 0
-51 -52 0
-50 -52 0
52 -43 53 0
-52 -53 0
43 -53 0
-44 13 54 0
44 -54 0
-13 -54 0
44 -13 55 0
-44 -55 0
13 -55 0
55 54 56 0
-55 -56 0
-54 -56 0
-47 21 57 0
47 -57 0
-21 -57 0
47 -21 58 0
-47 -58 0
21 -58 0
58 57 59 0
-58 -59 0
-57 -59 0
-59 56 60 0
59 -60 0
-56 -60 0
59 -56 61 0
-59 -61 0
56 -61 0
61 60 62 0
-61 -62 0
-60 -62 0
-62 -53 63 0
62 -63 0
53 -63 0
-54 14 64 0
54 -64 0
-14 -64 0
54 -14 65 0
-54 -65 0
14 -65 0
65 64 66 0
-65 -66 0
-64 -66 0
-66 -1 67 0
66 -67 0
1 -67 0
66 1 68 0
-66 -68 0
-1 -68 0
68 67 69 0
-68 -69 0
-67 -69 0
-57 22 70 0
57 -70 0
-22 -70 0
57 -22 71 0
-57 -71 0
22 -71 0
71 70 72 0
-71 -72 0
-70 -72 0
-72 69 73 0
72 -73 0
-69 -73 0
72 -69 74 0
-72 -74 0
69 -74 0
74 73 75 0
-74 -75 0
-73 -75 0
-75 -63 76 0
75 -76 0
63 -76 0
-64 15 77 0
64 -77 0
-15 -77 0
64 -15 78 0
-64 -78 0
15 -78 0
78 77 79 0
-78 -79 0
-77 -79 0
-79 -2 80 0
79 -80 0
2 -80 0
79 2 81 0
-79 -81 0
-2 -81 0
81 80 82 0
-81 -82 0
-80 -82 0
-82 -67 83 0
82 -83 0
67 -83 0
83 80 84 0
-83 -84 0
-80 -84 0
16 3 85 0
-16 -85 0
-3 -85 0
-16 -3 86 0
16 -86 0
3 -86 0
86 85 87 0
-86 -87 0
-85 -87 0
87 -77 88 0
-87 -88 0
77 -88 0
-87 77 89 0
87 -89 0
-77 -89 0
89 88 90 0
-89 -90 0
-88 -90 0
-70 23 91 0
70 -91 0
-23 -91 0
91 24 92 0
-91 -92 0
-24 -92 0
-91 -24 93 0
91 -93 0
24 -93 0
93 92 94 0
-93 -94 0
-92 -94 0
-94 90 95 0
94 -95 0
-90 -95 0
94 -90 96 0
-94 -96 0
90 -96 0
96 95 97 0
-96 -97 0
-95 -97 0
97 -84 98 0
-97 -98 0
84 -98 0
-97 84 99 0
97 -99 0
-84 -99 0
99 98 100 0
-99 -100 0
-98 -100 0
100 -76 101 0
-100 -101 0
76 -101 0
82 67 102 0
-82 -102 0
-67 -102 0
102 83 103 0
-102 -103 0
-83 -103 0
70 -23 104 0
-70 -104 0
23 -104 0
104 91 105 0
-104 -105 0
-91 -105 0
-105 -103 106 0
105 -106 0
103 -106 0
105 103 107 0
-105 -107 0
-103 -107 0
107 106 108 0
-107 -108 0
-106 -108 0
108 -101 109 0
-108 -109 0
101 -109 0
109 0
